p sp 62 159
a 0 10
a 0 14
a 0 15
a 0 40
a 0 42
a 0 47
a 1 17
a 1 19
a 1 26
a 1 27
a 1 28
a 1 36
a 1 41
a 1 54
a 2 10
a 2 42
a 2 44
a 2 61
a 3 8
a 3 14
a 3 59
a 4 51
a 5 9
a 5 13
a 5 56
a 5 57
a 6 9
a 6 13
a 6 17
a 6 54
a 6 56
a 6 57
a 7 19
a 7 27
a 7 30
a 7 40
a 7 54
a 8 3
a 8 20
a 8 28
a 8 37
a 8 45
a 8 59
a 9 5
a 9 6
a 9 13
a 9 17
a 9 32
a 9 41
a 9 57
a 10 0
a 10 2
a 10 29
a 10 42
a 10 47
a 11 51
a 12 33
a 13 5
a 13 6
a 13 9
a 13 17
a 13 32
a 13 41
a 13 54
a 13 57
a 14 0
a 14 3
a 14 16
a 14 24
a 14 33
a 14 34
a 14 37
a 14 38
a 14 40
a 14 43
a 14 50
a 14 52
a 15 0
a 15 18
a 15 24
a 15 40
a 15 45
a 15 55
a 15 59
a 16 14
a 16 20
a 16 33
a 16 37
a 16 38
a 16 50
a 17 1
a 17 6
a 17 9
a 17 13
a 17 22
a 17 25
a 17 27
a 17 31
a 17 57
a 18 15
a 18 20
a 18 21
a 18 24
a 18 29
a 18 45
a 18 51
a 19 1
a 19 7
a 19 30
a 19 54
a 20 8
a 20 16
a 20 18
a 20 28
a 20 36
a 20 38
a 20 44
a 20 47
a 20 50
a 21 18
a 21 29
a 21 33
a 21 37
a 21 45
a 21 51
a 22 17
a 23 36
a 23 45
a 23 51
a 24 14
a 24 15
a 24 18
a 24 29
a 24 45
a 24 51
a 25 17
a 25 26
a 25 27
a 26 1
a 26 25
a 26 27
a 27 1
a 27 7
a 27 17
a 27 25
a 27 26
a 28 1
a 28 8
a 28 20
a 28 30
a 28 47
a 29 10
a 29 18
a 29 21
a 29 24
a 29 35
a 29 43
a 29 45
a 29 51
a 29 52
a 30 7
a 30 19
a 30 28
a 30 42
a 30 47
a 31 17
a 32 9
a 32 13
a 32 60
a 33 12
a 33 14
a 33 16
a 33 21
a 33 34
a 33 37
a 33 38
a 33 40
a 33 43
a 33 50
a 34 14
a 34 33
a 34 37
a 34 44
a 34 49
a 35 29
a 36 1
a 36 20
a 36 23
a 36 37
a 36 39
a 36 40
a 36 59
a 37 8
a 37 14
a 37 16
a 37 21
a 37 33
a 37 34
a 37 36
a 37 40
a 37 43
a 37 45
a 37 61
a 38 14
a 38 16
a 38 20
a 38 33
a 38 43
a 38 44
a 38 52
a 38 58
a 39 36
a 39 57
a 40 0
a 40 7
a 40 14
a 40 15
a 40 33
a 40 36
a 40 37
a 40 52
a 41 1
a 41 9
a 41 13
a 41 54
a 41 57
a 42 0
a 42 2
a 42 10
a 42 30
a 42 47
a 42 50
a 43 14
a 43 29
a 43 33
a 43 37
a 43 38
a 43 46
a 43 53
a 44 2
a 44 20
a 44 34
a 44 38
a 45 8
a 45 15
a 45 18
a 45 21
a 45 23
a 45 24
a 45 29
a 45 37
a 45 50
a 45 51
a 45 59
a 46 43
a 46 49
a 47 0
a 47 10
a 47 20
a 47 28
a 47 30
a 47 42
a 48 57
a 49 34
a 49 46
a 50 14
a 50 16
a 50 20
a 50 33
a 50 42
a 50 45
a 50 51
a 51 4
a 51 11
a 51 18
a 51 21
a 51 23
a 51 24
a 51 29
a 51 45
a 51 50
a 51 55
a 52 14
a 52 29
a 52 38
a 52 40
a 53 43
a 53 61
a 54 1
a 54 6
a 54 7
a 54 13
a 54 19
a 54 41
a 54 57
a 55 15
a 55 51
a 56 5
a 56 6
a 57 5
a 57 6
a 57 9
a 57 13
a 57 17
a 57 39
a 57 41
a 57 48
a 57 54
a 58 38
a 59 3
a 59 8
a 59 15
a 59 36
a 59 45
a 60 32
a 61 2
a 61 37
a 61 53
